
Gurobi 11.0.1 (win64) logging started Mon May 13 15:50:27 2024

Set parameter LogFile to value "output/solver_log49.txt"
Gurobi Optimizer version 11.0.1 build v11.0.1rc0 (win64 - Windows 11.0 (22631.2))

CPU model: 11th Gen Intel(R) Core(TM) i7-1165G7 @ 2.80GHz, instruction set [SSE2|AVX|AVX2|AVX512]
Thread count: 4 physical cores, 8 logical processors, using up to 8 threads

Optimize a model with 2193 rows, 418 columns and 40369 nonzeros
Model fingerprint: 0x292e8bc4
Variable types: 248 continuous, 170 integer (170 binary)
Coefficient statistics:
  Matrix range     [4e-01, 1e+05]
  Objective range  [1e+00, 1e+02]
  Bounds range     [1e+00, 1e+00]
  RHS range        [1e-02, 1e+05]

User MIP start produced solution with objective 79236.2 (0.00s)
User MIP start produced solution with objective 79236.2 (0.01s)
Loaded user MIP start with objective 79236.2

Presolve removed 112 rows and 113 columns
Presolve time: 0.05s
Presolved: 2081 rows, 305 columns, 39712 nonzeros
Variable types: 228 continuous, 77 integer (77 binary)

Root relaxation: objective 7.929040e+04, 617 iterations, 0.04 seconds (0.08 work units)

    Nodes    |    Current Node    |     Objective Bounds      |     Work
 Expl Unexpl |  Obj  Depth IntInf | Incumbent    BestBd   Gap | It/Node Time

     0     0 79290.3952    0    2 79236.1650 79290.3952  0.07%     -    0s

Explored 1 nodes (617 simplex iterations) in 0.22 seconds (0.29 work units)
Thread count was 8 (of 8 available processors)

Solution count 2: 79236.2 79236.2 

Optimal solution found (tolerance 1.00e-04)
Best objective 7.923616499874e+04, best bound 7.923616499874e+04, gap 0.0000%
